p cnf 523 1203
1 0
2 0
3 0
4 0
5 0
6 0
7 0
8 0
9 0
-10 0
-11 0
-12 0
-13 0
-14 0
-15 0
-16 0
-17 0
-18 0
-19 0
20 21 0
22 21 0
-20 -22 -21 0
-1 21 -23 0
1 -21 -23 0
23 -21 -1 0
1 21 23 0
-23 0
24 25 0
26 25 0
-24 -26 -25 0
-22 25 -27 0
22 -25 -27 0
27 -25 -22 0
22 25 27 0
-27 0
26 -28 0
28 -26 0
29 30 0
31 30 0
-29 -31 -30 0
-2 30 -32 0
2 -30 -32 0
32 -30 -2 0
2 30 32 0
-32 0
33 34 0
3 34 0
-33 -3 -34 0
-31 34 -35 0
31 -34 -35 0
35 -34 -31 0
31 34 35 0
-35 0
36 37 0
38 37 0
-36 -38 -37 0
-3 37 -39 0
3 -37 -39 0
39 -37 -3 0
3 37 39 0
-39 0
40 41 0
42 41 0
-40 -42 -41 0
-38 41 -43 0
38 -41 -43 0
43 -41 -38 0
38 41 43 0
-43 0
44 45 0
46 45 0
-44 -46 -45 0
-42 45 -47 0
42 -45 -47 0
47 -45 -42 0
42 45 47 0
-47 0
36 48 0
40 48 0
44 48 0
49 48 0
-50 0
-46 48 -51 0
46 -48 -51 0
51 -48 -46 0
46 48 51 0
-51 0
42 52 0
53 52 0
-42 -53 -52 0
-4 52 -54 0
4 -52 -54 0
54 -52 -4 0
4 52 54 0
-54 0
55 56 0
57 56 0
-55 -57 -56 0
-5 56 -58 0
5 -56 -58 0
58 -56 -5 0
5 56 58 0
-58 0
59 60 0
61 60 0
-59 -61 -60 0
-57 60 -62 0
57 -60 -62 0
62 -60 -57 0
57 60 62 0
-62 0
63 64 0
65 64 0
-63 -65 -64 0
-61 64 -66 0
61 -64 -66 0
66 -64 -61 0
61 64 66 0
-66 0
67 68 0
69 68 0
-67 -69 -68 0
-65 68 -70 0
65 -68 -70 0
70 -68 -65 0
65 68 70 0
-70 0
71 72 0
73 72 0
-71 -73 -72 0
-69 72 -74 0
69 -72 -74 0
74 -72 -69 0
69 72 74 0
-74 0
63 75 0
67 75 0
71 75 0
76 75 0
-77 0
-73 75 -78 0
73 -75 -78 0
78 -75 -73 0
73 75 78 0
-78 0
79 80 0
4 80 0
-79 -4 -80 0
-6 80 -81 0
6 -80 -81 0
81 -80 -6 0
6 80 81 0
-81 0
82 83 0
84 83 0
-82 -84 -83 0
-7 83 -85 0
7 -83 -85 0
85 -83 -7 0
7 83 85 0
-85 0
86 87 0
88 87 0
-86 -88 -87 0
-84 87 -89 0
84 -87 -89 0
89 -87 -84 0
84 87 89 0
-89 0
65 90 0
91 90 0
-65 -91 -90 0
-88 90 -92 0
88 -90 -92 0
92 -90 -88 0
88 90 92 0
-92 0
46 93 0
94 93 0
-46 -94 -93 0
-8 93 -95 0
8 -93 -95 0
95 -93 -8 0
8 93 95 0
-95 0
96 97 0
98 97 0
-96 -98 -97 0
-9 97 -99 0
9 -97 -99 0
99 -97 -9 0
9 97 99 0
-99 0
26 100 0
101 100 0
-26 -101 -100 0
-98 100 -102 0
98 -100 -102 0
102 -100 -98 0
98 100 102 0
-102 0
103 104 0
105 104 0
-103 -105 -104 0
-10 104 -106 0
10 -104 -106 0
106 -104 -10 0
10 104 106 0
-106 0
107 108 0
109 108 0
-107 -109 -108 0
-105 108 -110 0
105 -108 -110 0
110 -108 -105 0
105 108 110 0
-110 0
111 112 0
113 112 0
-111 -113 -112 0
-109 112 -114 0
109 -112 -114 0
114 -112 -109 0
109 112 114 0
-114 0
115 116 0
117 116 0
-115 -117 -116 0
-113 116 -118 0
113 -116 -118 0
118 -116 -113 0
113 116 118 0
-118 0
119 120 0
121 120 0
-119 -121 -120 0
-117 120 -122 0
117 -120 -122 0
122 -120 -117 0
117 120 122 0
-122 0
111 123 0
115 123 0
119 123 0
124 123 0
-125 0
-121 123 -126 0
121 -123 -126 0
126 -123 -121 0
121 123 126 0
-126 0
127 128 0
129 128 0
-127 -129 -128 0
-11 128 -130 0
11 -128 -130 0
130 -128 -11 0
11 128 130 0
-130 0
131 132 0
133 132 0
-131 -133 -132 0
-129 132 -134 0
129 -132 -134 0
134 -132 -129 0
129 132 134 0
-134 0
135 136 0
137 136 0
-135 -137 -136 0
-133 136 -138 0
133 -136 -138 0
138 -136 -133 0
133 136 138 0
-138 0
139 140 0
141 140 0
-139 -141 -140 0
-137 140 -142 0
137 -140 -142 0
142 -140 -137 0
137 140 142 0
-142 0
143 144 0
145 144 0
-143 -145 -144 0
-141 144 -146 0
141 -144 -146 0
146 -144 -141 0
141 144 146 0
-146 0
143 147 0
148 147 0
-143 -148 -147 0
-145 147 -149 0
145 -147 -149 0
149 -147 -145 0
145 147 149 0
-149 0
150 151 0
152 151 0
-150 -152 -151 0
-12 151 -153 0
12 -151 -153 0
153 -151 -12 0
12 151 153 0
-153 0
154 155 0
156 155 0
-154 -156 -155 0
-152 155 -157 0
152 -155 -157 0
157 -155 -152 0
152 155 157 0
-157 0
158 159 0
160 159 0
-158 -160 -159 0
-156 159 -161 0
156 -159 -161 0
161 -159 -156 0
156 159 161 0
-161 0
162 163 0
164 163 0
-162 -164 -163 0
-160 163 -165 0
160 -163 -165 0
165 -163 -160 0
160 163 165 0
-165 0
166 167 0
168 167 0
-166 -168 -167 0
-164 167 -169 0
164 -167 -169 0
169 -167 -164 0
164 167 169 0
-169 0
162 170 0
166 170 0
171 170 0
-162 -166 -171 -170 0
-168 170 -172 0
168 -170 -172 0
172 -170 -168 0
168 170 172 0
-172 0
173 174 0
175 174 0
-173 -175 -174 0
-13 174 -176 0
13 -174 -176 0
176 -174 -13 0
13 174 176 0
-176 0
177 178 0
179 178 0
-177 -179 -178 0
-175 178 -180 0
175 -178 -180 0
180 -178 -175 0
175 178 180 0
-180 0
181 182 0
183 182 0
-181 -183 -182 0
-179 182 -184 0
179 -182 -184 0
184 -182 -179 0
179 182 184 0
-184 0
185 186 0
187 186 0
-185 -187 -186 0
-183 186 -188 0
183 -186 -188 0
188 -186 -183 0
183 186 188 0
-188 0
189 190 0
191 190 0
-189 -191 -190 0
-187 190 -192 0
187 -190 -192 0
192 -190 -187 0
187 190 192 0
-192 0
193 194 0
195 194 0
-193 -195 -194 0
-191 194 -196 0
191 -194 -196 0
196 -194 -191 0
191 194 196 0
-196 0
197 198 0
199 198 0
-197 -199 -198 0
-195 198 -200 0
195 -198 -200 0
200 -198 -195 0
195 198 200 0
-200 0
189 201 0
193 201 0
197 201 0
202 201 0
-203 0
-199 201 -204 0
199 -201 -204 0
204 -201 -199 0
199 201 204 0
-204 0
205 206 0
207 206 0
-205 -207 -206 0
-14 206 -208 0
14 -206 -208 0
208 -206 -14 0
14 206 208 0
-208 0
145 209 0
210 209 0
-145 -210 -209 0
-207 209 -211 0
207 -209 -211 0
211 -209 -207 0
207 209 211 0
-211 0
212 213 0
214 213 0
-212 -214 -213 0
-15 213 -215 0
15 -213 -215 0
215 -213 -15 0
15 213 215 0
-215 0
216 217 0
218 217 0
-216 -218 -217 0
-214 217 -219 0
214 -217 -219 0
219 -217 -214 0
214 217 219 0
-219 0
220 221 0
222 221 0
-220 -222 -221 0
-218 221 -223 0
218 -221 -223 0
223 -221 -218 0
218 221 223 0
-223 0
224 225 0
226 225 0
-224 -226 -225 0
-222 225 -227 0
222 -225 -227 0
227 -225 -222 0
222 225 227 0
-227 0
220 228 0
224 228 0
229 228 0
-220 -224 -229 -228 0
-226 228 -230 0
226 -228 -230 0
230 -228 -226 0
226 228 230 0
-230 0
231 232 0
233 232 0
-231 -233 -232 0
-16 232 -234 0
16 -232 -234 0
234 -232 -16 0
16 232 234 0
-234 0
235 236 0
237 236 0
-235 -237 -236 0
-233 236 -238 0
233 -236 -238 0
238 -236 -233 0
233 236 238 0
-238 0
239 240 0
241 240 0
-239 -241 -240 0
-237 240 -242 0
237 -240 -242 0
242 -240 -237 0
237 240 242 0
-242 0
243 244 0
245 244 0
-243 -245 -244 0
-241 244 -246 0
241 -244 -246 0
246 -244 -241 0
241 244 246 0
-246 0
243 247 0
248 247 0
-243 -248 -247 0
-245 247 -249 0
245 -247 -249 0
249 -247 -245 0
245 247 249 0
-249 0
250 251 0
252 251 0
-250 -252 -251 0
-17 251 -253 0
17 -251 -253 0
253 -251 -17 0
17 251 253 0
-253 0
254 255 0
256 255 0
-254 -256 -255 0
-252 255 -257 0
252 -255 -257 0
257 -255 -252 0
252 255 257 0
-257 0
258 259 0
260 259 0
-258 -260 -259 0
-256 259 -261 0
256 -259 -261 0
261 -259 -256 0
256 259 261 0
-261 0
262 263 0
264 263 0
-262 -264 -263 0
-260 263 -265 0
260 -263 -265 0
265 -263 -260 0
260 263 265 0
-265 0
258 266 0
262 266 0
267 266 0
-258 -262 -267 -266 0
-264 266 -268 0
264 -266 -268 0
268 -266 -264 0
264 266 268 0
-268 0
269 270 0
271 270 0
-269 -271 -270 0
-18 270 -272 0
18 -270 -272 0
272 -270 -18 0
18 270 272 0
-272 0
98 273 0
274 273 0
-98 -274 -273 0
-271 273 -275 0
271 -273 -275 0
275 -273 -271 0
271 273 275 0
-275 0
276 277 0
278 277 0
-276 -278 -277 0
-19 277 -279 0
19 -277 -279 0
279 -277 -19 0
19 277 279 0
-279 0
280 281 0
282 281 0
-280 -282 -281 0
-278 281 -283 0
278 -281 -283 0
283 -281 -278 0
278 281 283 0
-283 0
284 285 0
286 285 0
-284 -286 -285 0
-282 285 -287 0
282 -285 -287 0
287 -285 -282 0
282 285 287 0
-287 0
288 289 0
290 289 0
-288 -290 -289 0
-286 289 -291 0
286 -289 -291 0
291 -289 -286 0
286 289 291 0
-291 0
284 292 0
288 292 0
293 292 0
-284 -288 -293 -292 0
-290 292 -294 0
290 -292 -294 0
294 -292 -290 0
290 292 294 0
-294 0
295 296 0
296 -297 0
-295 297 -296 0
20 -296 0
-20 296 0
298 299 0
-300 299 0
-298 300 -299 0
24 -299 0
-24 299 0
301 302 0
302 -303 0
-301 303 -302 0
28 -302 0
-28 302 0
304 305 0
305 -306 0
-304 306 -305 0
29 -305 0
-29 305 0
307 308 0
-309 308 0
-307 309 -308 0
33 -308 0
-33 308 0
310 311 0
-312 311 0
-310 312 -311 0
36 -311 0
-36 311 0
313 314 0
314 -315 0
-313 315 -314 0
40 -314 0
-40 314 0
316 317 0
317 -318 0
-316 318 -317 0
44 -317 0
-44 317 0
319 320 0
-321 320 0
-319 321 -320 0
49 -320 0
-49 320 0
322 323 0
-324 323 0
-322 324 -323 0
53 -323 0
-53 323 0
325 326 0
-327 326 0
-325 327 -326 0
55 -326 0
-55 326 0
328 329 0
329 -330 0
-328 330 -329 0
59 -329 0
-59 329 0
331 332 0
-333 332 0
-331 333 -332 0
63 -332 0
-63 332 0
334 335 0
-336 335 0
-334 336 -335 0
67 -335 0
-67 335 0
337 338 0
338 -339 0
-337 339 -338 0
71 -338 0
-71 338 0
340 341 0
-342 341 0
-340 342 -341 0
76 -341 0
-76 341 0
343 344 0
-345 344 0
-343 345 -344 0
79 -344 0
-79 344 0
346 347 0
-348 347 0
-346 348 -347 0
82 -347 0
-82 347 0
349 350 0
-351 350 0
-349 351 -350 0
86 -350 0
-86 350 0
352 353 0
353 -354 0
-352 354 -353 0
91 -353 0
-91 353 0
355 356 0
-357 356 0
-355 357 -356 0
94 -356 0
-94 356 0
358 359 0
-360 359 0
-358 360 -359 0
96 -359 0
-96 359 0
361 362 0
-363 362 0
-361 363 -362 0
101 -362 0
-101 362 0
364 365 0
-366 365 0
-364 366 -365 0
103 -365 0
-103 365 0
367 368 0
368 -369 0
-367 369 -368 0
107 -368 0
-107 368 0
370 371 0
371 -372 0
-370 372 -371 0
111 -371 0
-111 371 0
373 374 0
374 -375 0
-373 375 -374 0
115 -374 0
-115 374 0
376 377 0
377 -378 0
-376 378 -377 0
119 -377 0
-119 377 0
379 380 0
-381 380 0
-379 381 -380 0
124 -380 0
-124 380 0
382 383 0
383 -384 0
-382 384 -383 0
127 -383 0
-127 383 0
385 386 0
-387 386 0
-385 387 -386 0
131 -386 0
-131 386 0
388 389 0
389 -390 0
-388 390 -389 0
135 -389 0
-135 389 0
391 392 0
-393 392 0
-391 393 -392 0
139 -392 0
-139 392 0
394 395 0
-396 395 0
-394 396 -395 0
143 -395 0
-143 395 0
397 398 0
-399 398 0
-397 399 -398 0
148 -398 0
-148 398 0
400 401 0
-402 401 0
-400 402 -401 0
150 -401 0
-150 401 0
403 404 0
404 -405 0
-403 405 -404 0
154 -404 0
-154 404 0
406 407 0
-408 407 0
-406 408 -407 0
158 -407 0
-158 407 0
409 410 0
-411 410 0
-409 411 -410 0
162 -410 0
-162 410 0
412 413 0
-414 413 0
-412 414 -413 0
166 -413 0
-166 413 0
415 416 0
416 -417 0
-415 417 -416 0
171 -416 0
-171 416 0
418 419 0
-420 419 0
-418 420 -419 0
173 -419 0
-173 419 0
421 422 0
-423 422 0
-421 423 -422 0
177 -422 0
-177 422 0
424 425 0
425 -426 0
-424 426 -425 0
181 -425 0
-181 425 0
427 428 0
-429 428 0
-427 429 -428 0
185 -428 0
-185 428 0
430 431 0
-432 431 0
-430 432 -431 0
189 -431 0
-189 431 0
433 434 0
434 -435 0
-433 435 -434 0
193 -434 0
-193 434 0
436 437 0
-438 437 0
-436 438 -437 0
197 -437 0
-197 437 0
439 440 0
-441 440 0
-439 441 -440 0
202 -440 0
-202 440 0
442 443 0
-444 443 0
-442 444 -443 0
205 -443 0
-205 443 0
445 446 0
-447 446 0
-445 447 -446 0
210 -446 0
-210 446 0
448 449 0
-450 449 0
-448 450 -449 0
212 -449 0
-212 449 0
451 452 0
-453 452 0
-451 453 -452 0
216 -452 0
-216 452 0
454 455 0
-456 455 0
-454 456 -455 0
220 -455 0
-220 455 0
457 458 0
-459 458 0
-457 459 -458 0
224 -458 0
-224 458 0
460 461 0
461 -462 0
-460 462 -461 0
229 -461 0
-229 461 0
463 464 0
464 -465 0
-463 465 -464 0
231 -464 0
-231 464 0
466 467 0
467 -468 0
-466 468 -467 0
235 -467 0
-235 467 0
469 470 0
-471 470 0
-469 471 -470 0
239 -470 0
-239 470 0
472 473 0
-474 473 0
-472 474 -473 0
243 -473 0
-243 473 0
475 476 0
-477 476 0
-475 477 -476 0
248 -476 0
-248 476 0
478 479 0
-480 479 0
-478 480 -479 0
250 -479 0
-250 479 0
481 482 0
-483 482 0
-481 483 -482 0
254 -482 0
-254 482 0
484 485 0
-486 485 0
-484 486 -485 0
258 -485 0
-258 485 0
487 488 0
-489 488 0
-487 489 -488 0
262 -488 0
-262 488 0
490 491 0
-492 491 0
-490 492 -491 0
267 -491 0
-267 491 0
493 494 0
-495 494 0
-493 495 -494 0
269 -494 0
-269 494 0
496 497 0
-498 497 0
-496 498 -497 0
274 -497 0
-274 497 0
499 500 0
500 -501 0
-499 501 -500 0
276 -500 0
-276 500 0
502 503 0
-504 503 0
-502 504 -503 0
280 -503 0
-280 503 0
505 506 0
-507 506 0
-505 507 -506 0
284 -506 0
-284 506 0
508 509 0
509 -510 0
-508 510 -509 0
288 -509 0
-288 509 0
511 512 0
-513 512 0
-511 513 -512 0
293 -512 0
-293 512 0
295 0
-298 0
301 0
304 0
-307 0
-310 0
313 0
316 0
-319 0
-322 0
-325 0
328 0
-331 0
-334 0
337 0
-340 0
-343 0
-346 0
-349 0
352 0
-355 0
-358 0
-361 0
364 0
367 0
370 0
373 0
376 0
-379 0
382 0
-385 0
388 0
-391 0
-394 0
397 0
-400 0
403 0
406 0
-409 0
-412 0
415 0
-418 0
-421 0
424 0
-427 0
-430 0
433 0
-436 0
439 0
442 0
445 0
-448 0
-451 0
454 0
-457 0
460 0
463 0
466 0
-469 0
472 0
-475 0
-478 0
481 0
484 0
-487 0
-490 0
-493 0
496 0
499 0
-502 0
505 0
508 0
-511 0
-514 -515 0
297 -514 0
300 -514 0
303 -514 0
306 -514 0
309 -514 0
312 -514 0
315 -514 0
318 -514 0
321 -514 0
-514 -324 0
327 -514 0
330 -514 0
333 -514 0
336 -514 0
339 -514 0
342 -514 0
-514 -345 0
348 -514 0
-514 -351 0
354 -514 0
357 -514 0
360 -514 0
-514 -363 0
-514 -366 0
369 -514 0
372 -514 0
375 -514 0
378 -514 0
-514 -381 0
384 -514 0
387 -514 0
390 -514 0
-514 -393 0
-514 -396 0
-514 -399 0
-514 -402 0
405 -514 0
-514 -408 0
-514 -411 0
-514 -414 0
417 -514 0
-514 -420 0
-514 -423 0
426 -514 0
-514 -429 0
-514 -432 0
435 -514 0
-514 -438 0
-514 -441 0
-514 -444 0
-514 -447 0
450 -514 0
453 -514 0
-514 -456 0
-514 -459 0
462 -514 0
465 -514 0
468 -514 0
-514 -471 0
-514 -474 0
477 -514 0
480 -514 0
-514 -483 0
-514 -486 0
489 -514 0
-514 -492 0
-514 -495 0
-514 -498 0
501 -514 0
-514 -504 0
-514 -507 0
510 -514 0
513 -514 0
297 -515 0
-515 -300 0
303 -515 0
306 -515 0
-515 -309 0
-515 -312 0
315 -515 0
318 -515 0
-515 -321 0
-515 -324 0
-515 -327 0
330 -515 0
-515 -333 0
-515 -336 0
339 -515 0
-515 -342 0
-515 -345 0
-515 -348 0
-515 -351 0
354 -515 0
-515 -357 0
-515 -360 0
-515 -363 0
366 -515 0
369 -515 0
372 -515 0
375 -515 0
378 -515 0
-515 -381 0
384 -515 0
-515 -387 0
390 -515 0
-515 -393 0
-515 -396 0
399 -515 0
-515 -402 0
405 -515 0
408 -515 0
-515 -411 0
-515 -414 0
417 -515 0
-515 -420 0
-515 -423 0
426 -515 0
-515 -429 0
-515 -432 0
435 -515 0
-515 -438 0
441 -515 0
444 -515 0
447 -515 0
-515 -450 0
-515 -453 0
456 -515 0
-515 -459 0
462 -515 0
465 -515 0
468 -515 0
-515 -471 0
474 -515 0
-515 -477 0
-515 -480 0
483 -515 0
486 -515 0
-515 -489 0
-515 -492 0
-515 -495 0
498 -515 0
501 -515 0
-515 -504 0
507 -515 0
510 -515 0
-515 -513 0
514 515 0
-516 0
-517 0
-518 0
-519 0
-520 0
-521 0
-522 0
-523 0
